POSCAR                                  
   1.00000000000000     
  11.4521999358999995   0.0000000000000000   0.0000000000000000
   0.0000000000000000  13.2399997711000008   0.0000000000000000
   0.0000000000000000   0.0000000000000000  20.0000000000000000
Se   Ga   H    O
23  24  2  1  
Direct
  0.1708198225702523  0.4988618056111850  0.4147570583685132  
  0.1872527233095870  0.4958928165931186  0.6473711308320040  
  0.0030021049599081  0.2496063194457341  0.4138196396828981  
  0.0031990612323642  0.2519580540210303  0.6518792116725654  
  0.5038210569461636  0.4998339361832968  0.4109879799442318  
  0.3373388658553331  0.2452965884450721  0.4106515192980135  
  0.3387413146713238  0.2470954385105229  0.6515763169050066  
  0.8364747300244323  0.4989703113476835  0.4150793981497601  
  0.8208841212210402  0.4954944890962880  0.6480312403495538  
  0.6693242156865733  0.2457980546398279  0.4108492832799364  
  0.6679565012480939  0.2473010895564678  0.6520534004097449  
  0.1690111329028939  0.9975898420982784  0.4140892916247172  
  0.1674940846783355  0.0028273349007499  0.6526762529359837  
  0.0029850603576541  0.7482440001966281  0.4134701690088062  
  0.0031889197122351  0.7463157380998706  0.6546793112405942  
  0.5036230535659336  0.9974860833136652  0.4126957401561255  
  0.5037000943233210  0.9995181674222220  0.6540668978109369  
  0.3399903828452792  0.7468577965843050  0.4199862654662300  
  0.3299725781567687  0.7588685767859173  0.6526312920760179  
  0.8373007768265365  0.9976189234961316  0.4145132644433167  
  0.8389960795558934  0.0020841382853674  0.6524813993941743  
  0.6666738418176557  0.7466779176468502  0.4198319864103526  
  0.6752815134219127  0.7569991627449427  0.6539496702867649  
  0.1704461354346383  0.1656394818656882  0.4709833345109439  
  0.1693761534014308  0.1689618906797333  0.5929587382761891  
  0.0038127728269161  0.4162052255706837  0.4729622025536951  
  0.0026901877325346  0.4191068591233778  0.5950961308833781  
  0.5034679191273690  0.1641640657734875  0.4710479898310341  
  0.5038400827063376  0.1625723939197039  0.5935190111382116  
  0.3387836366426616  0.4117703709547255  0.4697113341729717  
  0.3722910172331470  0.4091796874160908  0.5905487508742160  
  0.8357529565736086  0.1657399776807296  0.4712840061888273  
  0.8365933340253351  0.1686286715995004  0.5932520983938473  
  0.6686207881541810  0.4119656337106249  0.4704925738705598  
  0.6360603078897030  0.4102106870695971  0.5915847056983091  
  0.1679082369474212  0.6651906064268280  0.4733683763726797  
  0.1690750292323963  0.6640974866827830  0.5947651348931415  
  0.0033559074590729  0.9135868975674566  0.4731475280474836  
  0.0034881755983481  0.9132643489291300  0.5952773628546097  
  0.5034562554591935  0.6563499800082701  0.4778175718166601  
  0.5031659142777576  0.6800206573005376  0.6013543131362868  
  0.3372900644309095  0.9174379601014128  0.4724959164692106  
  0.3349827940191524  0.9246531228033308  0.5938776585102623  
  0.8383725304472022  0.6651704122867619  0.4739007353839058  
  0.8362778811189194  0.6638410619921223  0.5954097401373881  
  0.6693384734967393  0.9169566730509472  0.4729683878353588  
  0.6718178417173500  0.9215672829440354  0.5943449039118879  
  0.4280446873425248  0.5839674727652832  0.7095610197662920  
  0.4977404807827245  0.5046054958345354  0.6639483390522652  
  0.4994183950329584  0.5753487339174469  0.6829243386741197  
