POSCAR                                  
   1.00000000000000     
  11.4521999358999995   0.0000000000000000   0.0000000000000000
   0.0000000000000000  13.2399997711000008   0.0000000000000000
   0.0000000000000000   0.0000000000000000  20.0000000000000000
Se   Ga   H    O
23  24  2  1  
Direct
  0.1680722292982349  0.5010832245610159  0.4113075069896496  
  0.1686942333770832  0.5018792533834003  0.6556317677525066  
  0.0062150836725820  0.2496118420877088  0.4156236682113407  
  0.0090992766537845  0.2487799522833430  0.6540118775739842  
  0.5084909507647672  0.4982664189365513  0.4179037045204584  
  0.3405214002149871  0.2496065012562329  0.4146931503389821  
  0.3482264711992897  0.2622998936301809  0.6517433995289859  
  0.8340918132253679  0.4972586117810019  0.4197081458345380  
  0.8488278436955635  0.4990795177404316  0.6558095079145138  
  0.6741806912800378  0.2518037860797514  0.4194997576639071  
  0.6832336452575329  0.2349143093537422  0.6565828119231862  
  0.1707617237907331  0.0015096786205119  0.4151636482790656  
  0.1719903691064809  0.0044621439238456  0.6529312131254996  
  0.0020700753787210  0.7493792962948611  0.4152170313747940  
  0.0010019435585964  0.7495641950843838  0.6532550114269933  
  0.5052000702706442  0.9998763192110660  0.4157712102809963  
  0.5032108808833493  0.9984976519072082  0.6534111506382998  
  0.3329815789046809  0.7513993538648485  0.4115462633403788  
  0.3280336280729814  0.7550351937465787  0.6543077581949173  
  0.8371714271513613  0.9986775175260700  0.4153127927862726  
  0.8387637385163875  0.9913857017313744  0.6543763497574998  
  0.6704888710102355  0.7495299637357452  0.4142037710433250  
  0.6597255708207836  0.7395242705050015  0.6524539356123560  
  0.1738509470650308  0.1679840019613019  0.4739744440216506  
  0.1792742556554481  0.1726587167956717  0.5960089823915599  
  0.0063678727673831  0.4163135205634967  0.4735720359765719  
  0.0085664869515365  0.4152621944145609  0.5953010021631227  
  0.5065309312592015  0.1662455606989539  0.4745718304716217  
  0.5101515591942164  0.1665165755366036  0.5962531766599546  
  0.3344726137549350  0.4179353246358988  0.4694076826244785  
  0.3285210195874330  0.4296334763578686  0.5902257895207540  
  0.8413486129973475  0.1643562914060081  0.4744302984342824  
  0.8463309399795734  0.1573571176062550  0.5958281985083228  
  0.6703870503599220  0.4152307332011859  0.4832689853801593  
  0.6835041399586151  0.4052835054482854  0.6062556964261959  
  0.1699208339703727  0.6657362610184541  0.4722774913043949  
  0.1659330908508417  0.6665171271563746  0.5948551189966120  
  0.0049140246364878  0.9163609129916280  0.4731077710674173  
  0.0065895629863090  0.9155219313181796  0.5949030724887969  
  0.5000437387789886  0.6692704199587539  0.4695091796805960  
  0.4839565760880841  0.6720976480138191  0.5903027404572766  
  0.3369009851223500  0.9163247022222416  0.4724857004019776  
  0.3351123778851751  0.9191183163870073  0.5944017576610615  
  0.8359451197515573  0.6660725274024235  0.4741584273603157  
  0.8339295861323590  0.6638646738225615  0.5958201085766086  
  0.6709327391134453  0.9148248005348736  0.4740777651729591  
  0.6686391808217977  0.9103129185056208  0.5963442750894502  
  0.5100003566710843  0.4992466739121516  0.6416617386101479  
  0.5938364049719517  0.4431728444206068  0.6633085505190162  
  0.4415254795844104  0.5343267044643847  0.6198726369222251  
